
******************************************************************************
This program contains Ipopt, a library for large-scale nonlinear optimization.
 Ipopt is released as open source code under the Eclipse Public License (EPL).
         For more information visit http://projects.coin-or.org/Ipopt
******************************************************************************

This is Ipopt version 3.12.6, running with linear solver ma57.

Number of nonzeros in equality constraint Jacobian...:        0
Number of nonzeros in inequality constraint Jacobian.:        0
Number of nonzeros in Lagrangian Hessian.............:    19321

Total number of variables............................:     4900
                     variables with only lower bounds:        0
                variables with lower and upper bounds:        0
                     variables with only upper bounds:        0
Total number of equality constraints.................:        0
Total number of inequality constraints...............:        0
        inequality constraints with only lower bounds:        0
   inequality constraints with lower and upper bounds:        0
        inequality constraints with only upper bounds:        0

iter    objective    inf_pr   inf_du lg(mu)  ||d||  lg(rg) alpha_du alpha_pr  ls
   0  0.0000000e+00 0.00e+00 1.98e-04  -1.0 0.00e+00    -  0.00e+00 0.00e+00   0
   1 -9.3397485e-03 0.00e+00 1.96e-04  -5.7 3.68e-02    -  1.00e+00 1.00e+00f  1
   2 -1.0907989e-02 0.00e+00 3.61e-04  -5.7 1.25e-02    -  1.00e+00 1.00e+00f  1
   3 -1.1251783e-02 0.00e+00 7.14e-04  -5.7 5.29e-03    -  1.00e+00 1.00e+00f  1
   4 -1.1331809e-02 0.00e+00 6.80e-04  -5.7 1.94e-03    -  1.00e+00 1.00e+00f  1
   5 -1.1352512e-02 0.00e+00 4.22e-04  -5.7 8.46e-04    -  1.00e+00 1.00e+00f  1
   6 -1.1361768e-02 0.00e+00 2.08e-04  -5.7 4.03e-04    -  1.00e+00 1.00e+00f  1
   7 -1.1365972e-02 0.00e+00 1.79e-04  -5.7 3.30e-04    -  1.00e+00 1.00e+00f  1
   8 -1.1367401e-02 0.00e+00 7.40e-05  -5.7 1.62e-04    -  1.00e+00 1.00e+00f  1
   9 -1.1368120e-02 0.00e+00 6.80e-05  -5.7 1.11e-04    -  1.00e+00 1.00e+00f  1
iter    objective    inf_pr   inf_du lg(mu)  ||d||  lg(rg) alpha_du alpha_pr  ls
  10 -1.1368629e-02 0.00e+00 6.41e-05  -5.7 8.11e-05    -  1.00e+00 1.00e+00f  1
  11 -1.1369064e-02 0.00e+00 6.01e-05  -5.7 7.56e-05    -  1.00e+00 1.00e+00f  1
  12 -1.1369452e-02 0.00e+00 5.61e-05  -5.7 7.30e-05    -  1.00e+00 1.00e+00f  1
  13 -1.1369804e-02 0.00e+00 5.22e-05  -5.7 7.08e-05    -  1.00e+00 1.00e+00f  1
  14 -1.1370124e-02 0.00e+00 4.87e-05  -5.7 6.90e-05    -  1.00e+00 1.00e+00f  1
  15 -1.1370418e-02 0.00e+00 4.53e-05  -5.7 6.70e-05    -  1.00e+00 1.00e+00f  1
  16 -1.1370688e-02 0.00e+00 4.23e-05  -5.7 6.52e-05    -  1.00e+00 1.00e+00f  1
  17 -1.1370939e-02 0.00e+00 3.95e-05  -5.7 6.33e-05    -  1.00e+00 1.00e+00f  1
  18 -1.1371171e-02 0.00e+00 3.70e-05  -5.7 6.15e-05    -  1.00e+00 1.00e+00f  1
  19 -1.1371373e-02 0.00e+00 3.41e-05  -5.7 5.98e-05    -  1.00e+00 1.00e+00f  1
iter    objective    inf_pr   inf_du lg(mu)  ||d||  lg(rg) alpha_du alpha_pr  ls
  20 -1.1371501e-02 0.00e+00 2.75e-05  -5.7 4.62e-05    -  1.00e+00 1.00e+00f  1
  21 -1.1371588e-02 0.00e+00 2.31e-05  -5.7 3.80e-05    -  1.00e+00 1.00e+00f  1
  22 -1.1371649e-02 0.00e+00 1.99e-05  -5.7 3.13e-05    -  1.00e+00 1.00e+00f  1
  23 -1.1371691e-02 0.00e+00 1.77e-05  -5.7 2.58e-05    -  1.00e+00 1.00e+00f  1
  24 -1.1371721e-02 0.00e+00 1.38e-05  -8.6 2.19e-05    -  1.00e+00 1.00e+00f  1
  25 -1.1371742e-02 0.00e+00 1.21e-05  -8.6 1.80e-05    -  1.00e+00 1.00e+00f  1
  26 -1.1371756e-02 0.00e+00 1.14e-05  -8.6 1.50e-05    -  1.00e+00 1.00e+00f  1
  27 -1.1371767e-02 0.00e+00 1.08e-05  -8.6 1.27e-05    -  1.00e+00 1.00e+00f  1
  28 -1.1371775e-02 0.00e+00 1.02e-05  -8.6 1.08e-05    -  1.00e+00 1.00e+00f  1
  29 -1.1371780e-02 0.00e+00 9.61e-06  -8.6 9.07e-06    -  1.00e+00 1.00e+00f  1
iter    objective    inf_pr   inf_du lg(mu)  ||d||  lg(rg) alpha_du alpha_pr  ls
  30 -1.1371784e-02 0.00e+00 8.97e-06  -8.6 7.56e-06    -  1.00e+00 1.00e+00f  1
  31 -1.1371787e-02 0.00e+00 8.34e-06  -8.6 6.39e-06    -  1.00e+00 1.00e+00f  1
  32 -1.1371789e-02 0.00e+00 7.72e-06  -8.6 5.60e-06    -  1.00e+00 1.00e+00f  1
  33 -1.1371791e-02 0.00e+00 7.13e-06  -8.6 5.22e-06    -  1.00e+00 1.00e+00f  1
  34 -1.1371792e-02 0.00e+00 6.57e-06  -8.6 4.82e-06    -  1.00e+00 1.00e+00f  1
  35 -1.1371793e-02 0.00e+00 6.05e-06  -8.6 4.42e-06    -  1.00e+00 1.00e+00f  1
  36 -1.1371794e-02 0.00e+00 5.55e-06  -8.6 4.03e-06    -  1.00e+00 1.00e+00f  1
  37 -1.1371794e-02 0.00e+00 5.09e-06  -8.6 3.65e-06    -  1.00e+00 1.00e+00f  1
  38 -1.1371795e-02 0.00e+00 4.69e-06  -8.6 3.30e-06    -  1.00e+00 1.00e+00f  1
  39 -1.1371795e-02 0.00e+00 4.46e-06  -8.6 2.97e-06    -  1.00e+00 1.00e+00f  1
iter    objective    inf_pr   inf_du lg(mu)  ||d||  lg(rg) alpha_du alpha_pr  ls
  40 -1.1371795e-02 0.00e+00 4.24e-06  -8.6 2.66e-06    -  1.00e+00 1.00e+00f  1
  41 -1.1371796e-02 0.00e+00 4.02e-06  -8.6 2.39e-06    -  1.00e+00 1.00e+00f  1
  42 -1.1371796e-02 0.00e+00 3.82e-06  -8.6 2.14e-06    -  1.00e+00 1.00e+00f  1
  43 -1.1371796e-02 0.00e+00 3.63e-06  -8.6 1.91e-06    -  1.00e+00 1.00e+00f  1
  44 -1.1371796e-02 0.00e+00 3.45e-06  -8.6 1.70e-06    -  1.00e+00 1.00e+00f  1
  45 -1.1371796e-02 0.00e+00 3.28e-06  -8.6 1.51e-06    -  1.00e+00 1.00e+00f  1
  46 -1.1371796e-02 0.00e+00 3.11e-06  -8.6 1.42e-06    -  1.00e+00 1.00e+00f  1
  47 -1.1371796e-02 0.00e+00 2.96e-06  -8.6 1.34e-06    -  1.00e+00 1.00e+00f  1
  48 -1.1371797e-02 0.00e+00 2.81e-06  -8.6 1.27e-06    -  1.00e+00 1.00e+00f  1
  49 -1.1371797e-02 0.00e+00 2.67e-06  -8.6 1.20e-06    -  1.00e+00 1.00e+00f  1
iter    objective    inf_pr   inf_du lg(mu)  ||d||  lg(rg) alpha_du alpha_pr  ls
  50 -1.1371797e-02 0.00e+00 2.53e-06  -8.6 1.14e-06    -  1.00e+00 1.00e+00f  1
  51 -1.1371797e-02 0.00e+00 2.41e-06  -8.6 1.08e-06    -  1.00e+00 1.00e+00f  1
  52 -1.1371797e-02 0.00e+00 2.28e-06  -8.6 1.02e-06    -  1.00e+00 1.00e+00f  1
  53 -1.1371797e-02 0.00e+00 2.17e-06  -8.6 9.68e-07    -  1.00e+00 1.00e+00f  1
  54 -1.1371797e-02 0.00e+00 2.06e-06  -8.6 9.17e-07    -  1.00e+00 1.00e+00f  1
  55 -1.1371797e-02 0.00e+00 1.96e-06  -8.6 8.68e-07    -  1.00e+00 1.00e+00f  1
  56 -1.1371797e-02 0.00e+00 1.86e-06  -8.6 8.23e-07    -  1.00e+00 1.00e+00f  1
  57 -1.1371797e-02 0.00e+00 1.77e-06  -8.6 7.80e-07    -  1.00e+00 1.00e+00f  1
  58 -1.1371797e-02 0.00e+00 1.68e-06  -8.6 7.39e-07    -  1.00e+00 1.00e+00f  1
  59 -1.1371797e-02 0.00e+00 1.59e-06  -8.6 7.00e-07    -  1.00e+00 1.00e+00f  1
iter    objective    inf_pr   inf_du lg(mu)  ||d||  lg(rg) alpha_du alpha_pr  ls
  60 -1.1371797e-02 0.00e+00 1.51e-06  -8.6 6.64e-07    -  1.00e+00 1.00e+00f  1
  61 -1.1371797e-02 0.00e+00 1.44e-06  -8.6 6.29e-07    -  1.00e+00 1.00e+00f  1
  62 -1.1371797e-02 0.00e+00 1.37e-06  -8.6 5.97e-07    -  1.00e+00 1.00e+00f  1
  63 -1.1371797e-02 0.00e+00 1.30e-06  -8.6 5.66e-07    -  1.00e+00 1.00e+00f  1
  64 -1.1371797e-02 0.00e+00 1.23e-06  -8.6 5.37e-07    -  1.00e+00 1.00e+00f  1
  65 -1.1371797e-02 0.00e+00 1.17e-06  -8.6 5.09e-07    -  1.00e+00 1.00e+00f  1
  66 -1.1371797e-02 0.00e+00 1.11e-06  -8.6 4.83e-07    -  1.00e+00 1.00e+00f  1
  67 -1.1371797e-02 0.00e+00 1.06e-06  -8.6 4.58e-07    -  1.00e+00 1.00e+00f  1
  68 -1.1371797e-02 0.00e+00 1.00e-06  -8.6 4.34e-07    -  1.00e+00 1.00e+00f  1
  69 -1.1371797e-02 0.00e+00 9.55e-07  -8.6 4.12e-07    -  1.00e+00 1.00e+00f  1
iter    objective    inf_pr   inf_du lg(mu)  ||d||  lg(rg) alpha_du alpha_pr  ls
  70 -1.1371797e-02 0.00e+00 9.07e-07  -8.6 3.91e-07    -  1.00e+00 1.00e+00f  1
  71 -1.1371797e-02 0.00e+00 8.62e-07  -8.6 3.71e-07    -  1.00e+00 1.00e+00f  1
  72 -1.1371797e-02 0.00e+00 8.19e-07  -8.6 3.52e-07    -  1.00e+00 1.00e+00f  1
  73 -1.1371797e-02 0.00e+00 7.79e-07  -8.6 3.34e-07    -  1.00e+00 1.00e+00f  1
  74 -1.1371797e-02 0.00e+00 7.40e-07  -8.6 3.17e-07    -  1.00e+00 1.00e+00f  1
  75 -1.1371797e-02 0.00e+00 7.03e-07  -8.6 3.01e-07    -  1.00e+00 1.00e+00f  1
  76 -1.1371797e-02 0.00e+00 6.68e-07  -8.6 2.86e-07    -  1.00e+00 1.00e+00f  1
  77 -1.1371797e-02 0.00e+00 6.35e-07  -8.6 2.71e-07    -  1.00e+00 1.00e+00f  1
  78 -1.1371797e-02 0.00e+00 6.04e-07  -8.6 2.57e-07    -  1.00e+00 1.00e+00f  1
  79 -1.1371797e-02 0.00e+00 5.74e-07  -8.6 2.44e-07    -  1.00e+00 1.00e+00f  1
iter    objective    inf_pr   inf_du lg(mu)  ||d||  lg(rg) alpha_du alpha_pr  ls
  80 -1.1371797e-02 0.00e+00 5.45e-07  -8.6 2.32e-07    -  1.00e+00 1.00e+00f  1
  81 -1.1371797e-02 0.00e+00 5.18e-07  -8.6 2.20e-07    -  1.00e+00 1.00e+00f  1
  82 -1.1371797e-02 0.00e+00 4.93e-07  -8.6 2.09e-07    -  1.00e+00 1.00e+00f  1
  83 -1.1371797e-02 0.00e+00 4.69e-07  -8.6 1.99e-07    -  1.00e+00 1.00e+00f  1

Number of Iterations....: 83

                                   (scaled)                 (unscaled)
Objective...............:  -1.1371796932425356e-02   -1.1371796932425356e-02
Dual infeasibility......:   4.6850430828805113e-07    4.6850430828805113e-07
Constraint violation....:   0.0000000000000000e+00    0.0000000000000000e+00
Complementarity.........:   0.0000000000000000e+00    0.0000000000000000e+00
Overall NLP error.......:   4.6850430828805113e-07    4.6850430828805113e-07


Number of objective function evaluations             = 84
Number of objective gradient evaluations             = 84
Number of equality constraint evaluations            = 0
Number of inequality constraint evaluations          = 0
Number of equality constraint Jacobian evaluations   = 0
Number of inequality constraint Jacobian evaluations = 0
Number of Lagrangian Hessian evaluations             = 83
Total CPU secs in IPOPT (w/o function evaluations)   =      0.420
Total CPU secs in NLP function evaluations           =      0.663

EXIT: Solved To Acceptable Level.

 ** SUBROUTINE CUTEST_csetup: Warning. The problem has no general constraints. 
 ** Other tools may be preferable ** 

************************ CUTEst statistics ************************


 Package used            :  IPOPT
 Problem                 :  ODC       
 # variables             =            5184
 # constraints           =               0
 # objective functions   =        0.1690000E+03
 # objective gradients   =        0.8500000E+02
 # objective Hessians    =        0.8400000E+02
 # Hessian-vector prdct  =        0.0000000E+00
 # constraints functions =        0.0000000E+00
 # constraints gradients =        0.0000000E+00
 # constraints Hessians  =        0.0000000E+00
 Exit code               =               1
 Final f                 =  -0.1137180E-01
 Set up time             =            0.22 seconds
 Solve time              =            1.18 seconds


******************************************************************

System Time =       1.1059999466 s.
